
Gurobi 10.0.3 (mac64[arm], gurobi_cl) logging started Tue Oct  8 11:50:33 2024

Set parameter Username
Set parameter LogFile to value "gurobi.log"

--------------------------------------------
Warning: your license will expire in 1 days
--------------------------------------------


Gurobi 10.0.3 (mac64[arm], gurobi_cl) logging started Tue Oct  8 11:55:25 2024

Set parameter Username
Set parameter LogFile to value "gurobi.log"

--------------------------------------------
Warning: your license will expire in 1 days
--------------------------------------------


Gurobi 10.0.3 (mac64[arm], gurobi_cl) logging started Tue Oct  8 11:57:57 2024

Set parameter Username
Set parameter LogFile to value "gurobi.log"

--------------------------------------------
Warning: your license will expire in 1 days
--------------------------------------------


Gurobi 10.0.3 (mac64[arm], gurobi_cl) logging started Tue Oct  8 12:00:16 2024

Set parameter Username
Set parameter LogFile to value "gurobi.log"

--------------------------------------------
Warning: your license will expire in 1 days
--------------------------------------------


Gurobi 10.0.3 (mac64[arm], gurobi_cl) logging started Tue Oct  8 12:00:24 2024

Set parameter Username
Set parameter LogFile to value "gurobi.log"

--------------------------------------------
Warning: your license will expire in 1 days
--------------------------------------------


Gurobi 10.0.3 (mac64[arm], gurobi_cl) logging started Tue Oct  8 12:04:07 2024

Set parameter Username
Set parameter LogFile to value "gurobi.log"

--------------------------------------------
Warning: your license will expire in 1 days
--------------------------------------------


Gurobi 10.0.3 (mac64[arm], gurobi_cl) logging started Tue Oct  8 12:04:19 2024

Set parameter Username
Set parameter LogFile to value "gurobi.log"

--------------------------------------------
Warning: your license will expire in 1 days
--------------------------------------------


Gurobi 10.0.3 (mac64[arm], gurobi_cl) logging started Tue Oct  8 12:04:31 2024

Set parameter Username
Set parameter LogFile to value "gurobi.log"

--------------------------------------------
Warning: your license will expire in 1 days
--------------------------------------------


Gurobi 10.0.3 (mac64[arm], gurobi_cl) logging started Tue Oct  8 12:04:46 2024

Set parameter Username
Set parameter LogFile to value "gurobi.log"

--------------------------------------------
Warning: your license will expire in 1 days
--------------------------------------------


Gurobi 10.0.3 (mac64[arm], gurobi_cl) logging started Tue Oct  8 12:07:03 2024

Set parameter Username
Set parameter LogFile to value "gurobi.log"

--------------------------------------------
Warning: your license will expire in 1 days
--------------------------------------------


Gurobi 10.0.3 (mac64[arm], gurobi_cl) logging started Tue Oct  8 12:07:12 2024

Set parameter Username
Set parameter LogFile to value "gurobi.log"

--------------------------------------------
Warning: your license will expire in 1 days
--------------------------------------------


Gurobi 10.0.3 (mac64[arm], gurobi_cl) logging started Tue Oct  8 12:11:12 2024

Set parameter Username
Set parameter LogFile to value "gurobi.log"

--------------------------------------------
Warning: your license will expire in 1 days
--------------------------------------------


Gurobi 10.0.3 (mac64[arm], gurobi_cl) logging started Tue Oct  8 12:11:20 2024

Set parameter Username
Set parameter LogFile to value "gurobi.log"

--------------------------------------------
Warning: your license will expire in 1 days
--------------------------------------------


Gurobi 10.0.3 (mac64[arm], gurobi_cl) logging started Tue Oct  8 12:11:29 2024

Set parameter Username
Set parameter LogFile to value "gurobi.log"

--------------------------------------------
Warning: your license will expire in 1 days
--------------------------------------------


Gurobi 10.0.3 (mac64[arm], gurobi_cl) logging started Tue Oct  8 12:12:11 2024

Set parameter Username
Set parameter LogFile to value "gurobi.log"

--------------------------------------------
Warning: your license will expire in 1 days
--------------------------------------------


Gurobi 10.0.3 (mac64[arm], gurobi_cl) logging started Tue Oct 22 09:18:31 2024

Set parameter Username
Set parameter LogFile to value "gurobi.log"

Gurobi 10.0.3 (mac64[arm], gurobi_cl) logging started Tue Oct 22 09:26:27 2024

Set parameter Username
Set parameter LogFile to value "gurobi.log"

Gurobi 10.0.3 (mac64[arm], gurobi_cl) logging started Tue Oct 22 09:26:28 2024

Set parameter Username
Set parameter LogFile to value "gurobi.log"

Gurobi 10.0.3 (mac64[arm], gurobi_cl) logging started Tue Oct 22 09:34:01 2024

Set parameter Username
Set parameter LogFile to value "gurobi.log"

Gurobi 10.0.3 (mac64[arm], gurobi_cl) logging started Tue Oct 22 09:54:12 2024

Set parameter Username
Set parameter LogFile to value "gurobi.log"

Gurobi 10.0.3 (mac64[arm], gurobi_cl) logging started Tue Oct 22 09:54:28 2024

Set parameter Username
Set parameter LogFile to value "gurobi.log"

Gurobi 10.0.3 (mac64[arm], gurobi_cl) logging started Tue Oct 22 09:55:59 2024

Set parameter Username
Set parameter LogFile to value "gurobi.log"

Gurobi 10.0.3 (mac64[arm], gurobi_cl) logging started Tue Oct 22 09:57:10 2024

Set parameter Username
Set parameter LogFile to value "gurobi.log"

Gurobi 10.0.3 (mac64[arm], gurobi_cl) logging started Tue Oct 22 09:57:57 2024

Set parameter Username
Set parameter LogFile to value "gurobi.log"

Gurobi 10.0.3 (mac64[arm], gurobi_cl) logging started Tue Oct 22 09:58:08 2024

Set parameter Username
Set parameter LogFile to value "gurobi.log"

Gurobi 10.0.3 (mac64[arm], gurobi_cl) logging started Tue Oct 22 10:00:45 2024

Set parameter Username
Set parameter LogFile to value "gurobi.log"

Gurobi 10.0.3 (mac64[arm], gurobi_cl) logging started Tue Oct 22 10:01:39 2024

Set parameter Username
Set parameter LogFile to value "gurobi.log"

Gurobi 10.0.3 (mac64[arm], gurobi_cl) logging started Tue Oct 22 10:01:43 2024

Set parameter Username
Set parameter LogFile to value "gurobi.log"

Gurobi 10.0.3 (mac64[arm], gurobi_cl) logging started Tue Oct 22 10:02:08 2024

Set parameter Username
Set parameter LogFile to value "gurobi.log"

Gurobi 10.0.3 (mac64[arm], gurobi_cl) logging started Tue Oct 22 10:04:27 2024

Set parameter Username
Set parameter LogFile to value "gurobi.log"

Gurobi 10.0.3 (mac64[arm], gurobi_cl) logging started Tue Oct 22 10:05:28 2024

Set parameter Username
Set parameter LogFile to value "gurobi.log"

Gurobi 10.0.3 (mac64[arm], gurobi_cl) logging started Tue Oct 22 10:07:26 2024

Set parameter Username
Set parameter LogFile to value "gurobi.log"

Gurobi 10.0.3 (mac64[arm], gurobi_cl) logging started Tue Oct 22 10:08:41 2024

Set parameter Username
Set parameter LogFile to value "gurobi.log"

Gurobi 10.0.3 (mac64[arm], gurobi_cl) logging started Tue Oct 22 10:09:22 2024

Set parameter Username
Set parameter LogFile to value "gurobi.log"

Gurobi 10.0.3 (mac64[arm], gurobi_cl) logging started Tue Oct 22 10:16:53 2024

Set parameter Username
Set parameter LogFile to value "gurobi.log"

Gurobi 10.0.3 (mac64[arm], gurobi_cl) logging started Tue Oct 22 10:18:16 2024

Set parameter Username
Set parameter LogFile to value "gurobi.log"

Gurobi 10.0.3 (mac64[arm], gurobi_cl) logging started Tue Oct 22 10:19:09 2024

Set parameter Username
Set parameter LogFile to value "gurobi.log"

Gurobi 10.0.3 (mac64[arm], gurobi_cl) logging started Tue Oct 22 10:20:17 2024

Set parameter Username
Set parameter LogFile to value "gurobi.log"

Gurobi 10.0.3 (mac64[arm], gurobi_cl) logging started Tue Oct 22 10:20:29 2024

Set parameter Username
Set parameter LogFile to value "gurobi.log"

Gurobi 10.0.3 (mac64[arm], gurobi_cl) logging started Tue Oct 22 10:21:34 2024

Set parameter Username
Set parameter LogFile to value "gurobi.log"

Gurobi 10.0.3 (mac64[arm], gurobi_cl) logging started Tue Oct 22 10:24:48 2024

Set parameter Username
Set parameter LogFile to value "gurobi.log"

Gurobi 10.0.3 (mac64[arm], gurobi_cl) logging started Tue Oct 22 10:25:00 2024

Set parameter Username
Set parameter LogFile to value "gurobi.log"

Gurobi 10.0.3 (mac64[arm], gurobi_cl) logging started Tue Oct 22 10:32:45 2024

Set parameter Username
Set parameter LogFile to value "gurobi.log"

Gurobi 10.0.3 (mac64[arm], gurobi_cl) logging started Tue Oct 22 11:04:36 2024

Set parameter Username
Set parameter LogFile to value "gurobi.log"

Gurobi 10.0.3 (mac64[arm], gurobi_cl) logging started Tue Oct 22 11:06:26 2024

Set parameter Username
Set parameter LogFile to value "gurobi.log"
